(set-logic QF_S)
(declare-fun var0 () String)
(assert (str.in.re var0 (re.++ (re.* (re.* (str.to.re "00"))) (re.++ (re.union (re.union (str.to.re "111") (str.to.re "22")) (re.union (str.to.re "33") (str.to.re "4"))) (re.++ (re.+ (re.+ (str.to.re "5"))) (re.++ (re.union (re.union (str.to.re "666") (str.to.re "777")) (re.union (str.to.re "8") (str.to.re "99"))) (re.++ (re.* (re.* (str.to.re "a"))) (re.++ (re.union (re.+ (str.to.re "b")) (re.+ (str.to.re "c"))) (re.++ (re.union (re.union (str.to.re "dd") (str.to.re "e")) (re.union (str.to.re "fff") (str.to.re "g"))) (re.++ (re.union (re.+ (str.to.re "hhh")) (re.+ (str.to.re "iii"))) (re.++ (re.union (re.+ (str.to.re "jj")) (re.+ (str.to.re "kkk"))) (re.union (re.+ (str.to.re "ll")) (re.+ (str.to.re "m"))))))))))))))
(assert (<= 126 (str.len var0)))
(check-sat)